! wB97M-V def2-TZVP def2/J RIJCOSX strongSCF noautostart miniprint nopop
%maxcore  1000
%pal nprocs   4 end
%cpcm
smd true
SMDsolvent "water"
end
* xyz   0   2
C      9.85521279   43.41841588   33.86383376
O     10.99108609   43.52169056   34.26900468
O      9.12535928   42.30441910   33.78265414
P      9.67940452   40.71232829   34.18846705
O     10.11510431   40.66041015   35.60291093
C      9.08823643   44.59198917   33.26376027
N      9.59639150   45.83288368   33.81461187
C      9.20178133   44.45928084   31.72128824
C      8.47604459   45.55128721   31.00304958
C      7.09361099   45.50886453   30.84913367
C      9.14219662   46.67473065   30.51406776
C      6.39099271   46.53715939   30.23885456
C      8.45877812   47.71558357   29.90917150
C      7.07621898   47.65397624   29.76971443
O      6.48914916   48.73454383   29.16446361
C      5.07013079   48.76976525   29.05759482
C      4.70811662   50.18997123   28.57902492
C      4.51772100   47.86350770   28.01334926
C      5.07793716   50.50763399   27.12344259
C      5.20109526   47.53139457   26.92593408
C      4.12179828   50.02273716   26.00110077
C      4.55266577   47.48585096   25.59458050
C      4.62537905   48.93027950   25.04505463
O      8.57175254   39.88572290   33.58077460
O     11.02400023   40.62228371   33.22586673
C     10.83877385   40.35433056   31.84137301
C     11.08840132   38.90792088   31.48593539
O     12.50290911   38.63534107   31.40978487
C     10.55408236   37.88195357   32.48329535
C     12.75653502   37.31512907   31.84197856
O      9.18627915   37.61077433   32.35717971
C     11.40607092   36.66838197   32.16234021
N     13.64511501   37.36456344   33.00142588
O     10.92543047   35.99954224   31.00672444
C     14.64571338   36.46557739   33.28007360
C     13.64887854   38.28845773   34.02989605
N     15.04453474   35.40738602   32.56876655
C     15.20189938   36.90491553   34.48349007
N     14.57178642   38.04416398   34.93317357
C     16.07789829   34.79049361   33.14094487
C     16.27591364   36.15881081   34.97874791
N     16.70924692   35.09704327   34.28236415
N     16.87228463   36.45559699   36.16496388
H      8.03521227   44.47701414   33.52507984
H      9.42465628   46.59617704   33.17324358
H     10.59839130   45.73541496   33.93452329
H      8.80043794   43.48731465   31.43571047
H     10.26004659   44.46951331   31.45650130
H      6.54907965   44.64563159   31.21144121
H     10.21938434   46.73478639   30.60914915
H      5.32394196   46.44688056   30.10817729
H      8.98208583   48.58511495   29.53528942
H      4.62964859   48.60510076   30.04651645
H      5.20959568   50.89323667   29.24650959
H      3.63590567   50.33097648   28.72854321
H      3.43218878   47.81251049   27.99440162
H      5.14791719   51.59487370   27.05510607
H      6.08844103   50.14669774   26.93495146
H      6.28069203   47.63525564   26.94151745
H      3.17185162   49.70529815   26.43645872
H      3.87350940   50.88646186   25.38075414
H      5.03289192   46.80249168   24.89251343
H      3.50541343   47.19044601   25.68267995
H      4.04974580   48.97544912   24.11658529
H      5.65890314   49.15183776   24.76836463
H      9.82491745   40.60524643   31.52909730
H     11.53608511   40.98618319   31.28884345
H     10.64056786   38.71045060   30.50636542
H     10.79355083   38.21570027   33.49504339
H     13.28096183   36.74444120   31.07701367
H      8.75169857   38.38415428   32.80791923
H     11.49247282   35.97575289   33.00342267
H      9.96546045   36.12989914   31.02279146
H     12.96687076   39.12289165   34.03962208
H     16.46468228   33.92547189   32.61466976
H     16.70986752   37.37923576   36.52718957
H     17.78900680   36.06899651   36.30583744
 *
